Minimize
	value: tt

Subject to
tt + 500 s_1_1 > 0
tt - t_1_1 - 500.000000 s_1_1 > -405.958500
tt + 500 s_2_1 > 0
tt - t_2_1 - 500.000000 s_2_1 > -470.555400
tt + 500 s_1_2 > 0
tt - t_1_2 - 500.000000 s_1_2 > -483.188380
tt + 500 s_2_2 > 0
tt - t_2_2 - 500.000000 s_2_2 > -493.921100
tt + 500 s_1_3 > 0
tt - t_1_3 - 500.000000 s_1_3 > -485.023640
tt + 500 s_2_3 > 0
tt - t_2_3 - 500.000000 s_2_3 > -496.491800
tt + 500 s_1_4 > 0
tt - t_1_4 - 500.000000 s_1_4 > -457.490540
tt + 500 s_2_4 > 0
tt - t_2_4 - 500.000000 s_2_4 > -485.542033
tt + 500 s_1_5 > 0
tt - t_1_5 - 548.000000 s_1_5 + 48.000000 s_1_1 > -499.520578
tt + 500 s_2_5 > 0
tt - t_2_5 - 548.000000 s_2_5 + 48.000000 s_2_1 > -498.414500
s_1_1 + s_2_1  = 1
s_1_2 + s_2_2  = 1
s_1_3 + s_2_3  = 1
s_1_4 + s_2_4  = 1
s_1_5 + s_2_5  = 1
t_1_1 - t_1_2 + 500.000000 u_1_1_2 > 16.811620
t_1_2 - t_1_1 - 500.000000 u_1_1_2 > -405.958500
t_2_1 - t_2_2 + 500.000000 u_2_1_2 > 6.078900
t_2_2 - t_2_1 - 500.000000 u_2_1_2 > -470.555400
t_1_1 - t_1_3 + 500.000000 u_1_1_3 > 14.976360
t_1_3 - t_1_1 - 500.000000 u_1_1_3 > -405.958500
t_2_1 - t_2_3 + 500.000000 u_2_1_3 > 3.508200
t_2_3 - t_2_1 - 500.000000 u_2_1_3 > -470.555400
t_1_1 - t_1_4 + 500.000000 u_1_1_4 > 42.509460
t_1_4 - t_1_1 - 500.000000 u_1_1_4 > -405.958500
t_2_1 - t_2_4 + 500.000000 u_2_1_4 > 14.457967
t_2_4 - t_2_1 - 500.000000 u_2_1_4 > -470.555400
t_1_5 - t_1_1 - 500.000000 s_1_1 > -402.958500
t_1_5 - t_2_1 - 500.000000 s_2_1 > -467.555400
t_2_5 - t_1_1 - 500.000000 s_1_1 > -402.958500
t_2_5 - t_2_1 - 500.000000 s_2_1 > -467.555400
t_1_2 - t_1_1 + 500.000000 u_1_2_1 > 94.041500
t_1_1 - t_1_2 - 500.000000 u_1_2_1 > -483.188380
t_2_2 - t_2_1 + 500.000000 u_2_2_1 > 29.444600
t_2_1 - t_2_2 - 500.000000 u_2_2_1 > -493.921100
t_1_2 - t_1_3 + 500.000000 u_1_2_3 > 14.976360
t_1_3 - t_1_2 - 500.000000 u_1_2_3 > -483.188380
t_2_2 - t_2_3 + 500.000000 u_2_2_3 > 3.508200
t_2_3 - t_2_2 - 500.000000 u_2_2_3 > -493.921100
t_1_2 - t_1_4 + 500.000000 u_1_2_4 > 42.509460
t_1_4 - t_1_2 - 500.000000 u_1_2_4 > -483.188380
t_2_2 - t_2_4 + 500.000000 u_2_2_4 > 14.457967
t_2_4 - t_2_2 - 500.000000 u_2_2_4 > -493.921100
t_1_5 - t_1_2 - 500.000000 s_1_2 > -480.188380
t_1_5 - t_2_2 - 500.000000 s_2_2 > -490.921100
t_2_5 - t_1_2 - 500.000000 s_1_2 > -480.188380
t_2_5 - t_2_2 - 500.000000 s_2_2 > -490.921100
t_1_3 - t_1_1 + 500.000000 u_1_3_1 > 94.041500
t_1_1 - t_1_3 - 500.000000 u_1_3_1 > -485.023640
t_2_3 - t_2_1 + 500.000000 u_2_3_1 > 29.444600
t_2_1 - t_2_3 - 500.000000 u_2_3_1 > -496.491800
t_1_3 - t_1_2 + 500.000000 u_1_3_2 > 16.811620
t_1_2 - t_1_3 - 500.000000 u_1_3_2 > -485.023640
t_2_3 - t_2_2 + 500.000000 u_2_3_2 > 6.078900
t_2_2 - t_2_3 - 500.000000 u_2_3_2 > -496.491800
t_1_3 - t_1_4 + 500.000000 u_1_3_4 > 42.509460
t_1_4 - t_1_3 - 500.000000 u_1_3_4 > -485.023640
t_2_3 - t_2_4 + 500.000000 u_2_3_4 > 14.457967
t_2_4 - t_2_3 - 500.000000 u_2_3_4 > -496.491800
t_1_5 - t_1_3 - 500.000000 s_1_3 > -482.023640
t_1_5 - t_2_3 - 500.000000 s_2_3 > -493.491800
t_2_5 - t_1_3 - 500.000000 s_1_3 > -482.023640
t_2_5 - t_2_3 - 500.000000 s_2_3 > -493.491800
t_1_4 - t_1_1 + 500.000000 u_1_4_1 > 94.041500
t_1_1 - t_1_4 - 500.000000 u_1_4_1 > -457.490540
t_2_4 - t_2_1 + 500.000000 u_2_4_1 > 29.444600
t_2_1 - t_2_4 - 500.000000 u_2_4_1 > -485.542033
t_1_4 - t_1_2 + 500.000000 u_1_4_2 > 16.811620
t_1_2 - t_1_4 - 500.000000 u_1_4_2 > -457.490540
t_2_4 - t_2_2 + 500.000000 u_2_4_2 > 6.078900
t_2_2 - t_2_4 - 500.000000 u_2_4_2 > -485.542033
t_1_4 - t_1_3 + 500.000000 u_1_4_3 > 14.976360
t_1_3 - t_1_4 - 500.000000 u_1_4_3 > -457.490540
t_2_4 - t_2_3 + 500.000000 u_2_4_3 > 3.508200
t_2_3 - t_2_4 - 500.000000 u_2_4_3 > -485.542033
t_1_5 - t_1_4 - 500.000000 s_1_4 > -454.490540
t_1_5 - t_2_4 - 500.000000 s_2_4 > -482.542033
t_2_5 - t_1_4 - 500.000000 s_1_4 > -454.490540
t_2_5 - t_2_4 - 500.000000 s_2_4 > -482.542033
t_1_5 - t_1_1 - 500.000000 s_1_1 > -402.958500
t_1_5 - t_2_1 - 500.000000 s_2_1 > -467.555400
t_2_5 - t_1_1 - 500.000000 s_1_1 > -402.958500
t_2_5 - t_2_1 - 500.000000 s_2_1 > -467.555400
t_1_5 - t_1_2 - 500.000000 s_1_2 > -480.188380
t_1_5 - t_2_2 - 500.000000 s_2_2 > -490.921100
t_2_5 - t_1_2 - 500.000000 s_1_2 > -480.188380
t_2_5 - t_2_2 - 500.000000 s_2_2 > -490.921100
t_1_5 - t_1_3 - 500.000000 s_1_3 > -482.023640
t_1_5 - t_2_3 - 500.000000 s_2_3 > -493.491800
t_2_5 - t_1_3 - 500.000000 s_1_3 > -482.023640
t_2_5 - t_2_3 - 500.000000 s_2_3 > -493.491800
t_1_5 - t_1_4 - 500.000000 s_1_4 > -454.490540
t_1_5 - t_2_4 - 500.000000 s_2_4 > -482.542033
t_2_5 - t_1_4 - 500.000000 s_1_4 > -454.490540
t_2_5 - t_2_4 - 500.000000 s_2_4 > -482.542033
Binary
s_1_1
s_2_1
s_1_2
s_2_2
s_1_3
s_2_3
s_1_4
s_2_4
s_1_5
s_2_5
u_1_1_2
u_2_1_2
u_1_1_3
u_2_1_3
u_1_1_4
u_2_1_4
u_1_2_1
u_2_2_1
u_1_2_3
u_2_2_3
u_1_2_4
u_2_2_4
u_1_3_1
u_2_3_1
u_1_3_2
u_2_3_2
u_1_3_4
u_2_3_4
u_1_4_1
u_2_4_1
u_1_4_2
u_2_4_2
u_1_4_3
u_2_4_3

End
